p td 50 75
15 44
15 7
15 48
44 8
44 19
9 45
9 39
9 23
45 13
45 43
42 49
42 5
42 39
49 20
49 46
8 38
8 1
6 48
6 10
6 0
48 47
17 29
17 24
17 2
29 33
29 41
31 37
31 30
31 13
37 4
37 21
24 26
24 23
26 30
26 0
4 27
4 34
27 47
27 43
0 7
7 46
14 33
14 3
14 18
33 38
12 36
12 28
12 39
36 40
36 2
19 22
19 16
30 11
22 34
22 35
11 47
11 1
1 43
32 40
32 35
32 21
40 3
3 41
10 34
10 2
18 23
18 25
46 16
13 20
21 41
20 5
28 5
28 25
25 35
38 16
